%nprocshared=32
%mem=122GB
%chk=q.chk
#pbe1pbe/tzvp scf=(xqc, maxconventionalcycles=2000) SCRF=(SMD,Solvent=water) opt=calcfc

Dscr 2F Fe(II) S5

0 5
C       -3.688310    2.286166   -0.008351
C       -2.758988    3.346091    0.012895
C       -2.905736    1.063099    0.000009
C       -1.440161    2.737334   -0.000909
N       -1.587506    1.389760    0.004897
C       -0.229997    3.427156   -0.000406
C       -3.427782   -0.229996   -0.002986
C       -2.737798   -1.440513   -0.001896
N       -1.390240   -1.587442    0.008250
C       -3.346128   -2.759588    0.010675
C        1.062780    2.905146    0.000564
N        1.389223    1.586954    0.001761
C        2.285711    3.687797   -0.008500
C       -2.285784   -3.688549   -0.010790
C       -1.063088   -2.905495    0.003067
C        0.229804   -3.427109    0.003016
C        3.345571    2.758644    0.012467
C        2.736730    1.439914   -0.004191
C        1.439940   -2.736994    0.000991
N        1.586689   -1.389333    0.007198
C        2.759156   -3.345265   -0.010942
C        3.688109   -2.284948    0.010119
C        2.904783   -1.062386   -0.004436
C        3.426539    0.230045   -0.008404
Fe      -0.000281   -0.000362    0.000896
C        3.209300   -4.655191    0.012652
C        5.049095   -2.553790   -0.014459
C        2.554793    5.048446    0.016963
C        4.655323    3.208243   -0.013176
H        4.504110    0.301429   -0.008504
H        0.301276   -4.504507   -0.011112
H       -0.301330    4.504701   -0.005618
H       -4.505281   -0.301354   -0.009296
C       -4.655712   -3.209528   -0.018638
C       -2.554839   -5.049445    0.010311
C       -3.862672   -5.484147   -0.004237
C       -4.912605   -4.564396   -0.012105
C       -5.049021    2.555367    0.016203
C       -5.483279    3.863334    0.005716
C       -4.563465    4.912955   -0.002462
C       -3.208729    4.655809   -0.011721
C        3.862751    5.482682    0.006457
C        4.912658    4.562932   -0.002575
C        4.564847   -4.912142    0.007149
C        5.484514   -3.861428    0.000225
F       -5.967116    1.587479    0.027834
F       -6.784640    4.140863    0.011632
F       -5.010558    6.166514   -0.011583
F       -2.369507    5.691489   -0.021630
F        1.586483    5.966109    0.030171
F        4.140357    6.784222    0.013554
F        5.690644    2.368729   -0.026219
F        6.166237    5.010008   -0.011590
F        5.966839   -1.585146   -0.027319
F        6.786198   -4.138011   -0.004027
F        2.369842   -5.690722    0.026136
F        5.012601   -6.165479    0.015850
F       -6.166013   -5.011666   -0.024574
F       -5.691405   -2.370375   -0.030078
F       -1.586497   -5.967448    0.024335
F       -4.139961   -6.785669   -0.000634

