%nprocshared=32 
%mem=122GB 
%chk=q.chk
#pbe1pbe/TZVP scf=(xqc, maxconventionalcycles=2000) opt Int=(Grid=Ultrafine) EmpiricalDispersion=GD3BJ

Dscr 3F Fe(III) S4

1 4
C       -2.859206   -3.142916   -0.065335
C       -3.706280   -2.079824   -0.069257
C       -1.529591   -2.614747   -0.014005
C       -2.897371   -0.911648   -0.027489
N       -1.556757   -1.252733   -0.001459
C       -3.393676    0.378858   -0.009171
C       -0.380012   -3.406270    0.005784
C        0.915717   -2.887906    0.018036
N        1.242268   -1.565309   -0.002729
C        2.096663   -3.695892    0.066375
C        2.625123   -1.527913    0.014805
C        3.157029   -2.845647    0.058502
C        3.393674   -0.378863   -0.009183
C        2.897369    0.911644   -0.027499
N        1.556756    1.252731   -0.001456
C        3.706278    2.079818   -0.069286
C        1.529590    2.614745   -0.014013
C        2.859205    3.142910   -0.065367
C        0.380010    3.406272    0.005784
C       -2.625126    1.527908    0.014813
N       -1.242271    1.565307   -0.002734
C       -3.157033    2.845641    0.058526
C       -0.915721    2.887905    0.018043
C       -2.096669    3.695887    0.066401
H       -3.113180   -4.190888   -0.100728
H       -4.784933   -2.091549   -0.102010
C       -0.544560   -4.873367    0.013373
C       -4.869120    0.543603   -0.014456
Fe      -0.000001    0.000000   -0.001962
H        2.113711   -4.773910    0.106262
H        4.206830   -3.094556    0.085408
C        4.869118   -0.543607   -0.014480
H        4.784931    2.091541   -0.102054
H        3.113183    4.190880   -0.100779
C        0.544559    4.873365    0.013372
H       -4.206834    3.094548    0.085443
H       -2.113721    4.773904    0.106305
C       -5.574839    0.711577   -1.198012
C       -5.603396    0.534522    1.163611
C       -6.980679    0.686011    1.171825
C       -7.655599    0.851896   -0.025060
C       -6.951793    0.865094   -1.216712
C        0.221988    5.655015   -1.092388
C        1.031121    5.551448    1.127458
C        1.193981    6.926674    1.146865
C        0.366528    7.032466   -1.095490
C        0.857235    7.671134    0.029897
C       -1.030976   -5.551461    1.127514
C       -0.222131   -5.654998   -1.092439
C       -1.193827   -6.926688    1.146926
C       -0.366671   -7.032449   -1.095542
C       -0.857227   -7.671132    0.029903
C        5.574826   -0.711590   -1.198041
C        5.603406   -0.534512    1.163580
C        6.951780   -0.865105   -1.216752
C        7.655597   -0.851893   -0.025107
C        6.980689   -0.685998    1.171783
F       -4.936017    0.725658   -2.359292
F       -4.991939    0.380229    2.329449
F       -7.658785    0.674870    2.314423
F       -7.602498    1.022927   -2.364384
F       -8.974670    0.997724   -0.030055
F        1.346111    4.882553    2.229014
F        1.655953    7.541074    2.232018
F        1.004228    8.991156    0.037984
F        0.053180    7.746237   -2.172915
F       -0.230702    5.084943   -2.201527
F        4.935994   -0.725682   -2.359315
F        7.602475   -1.022946   -2.364429
F        7.658806   -0.674845    2.314374
F        8.974669   -0.997717   -0.030113
F        4.991959   -0.380210    2.329423
F       -1.345832   -4.882574    2.229112
F       -1.655660   -7.541104    2.232130
F       -1.004215   -8.991153    0.037992
F        0.230419   -5.084905   -2.201624
F       -0.053459   -7.746206   -2.173016



